% Logging successfully configured
%%%mzn-stat: initTime=0.057976138
%%%mzn-stat: objective=1078
%%%mzn-stat: nodes=3264
%%%mzn-stat: restarts=0
%%%mzn-stat: peakDepth=3260
%%%mzn-stat: solveTime=0.013620079
%%%mzn-stat: variables=5361
%%%mzn-stat: propagators=15383
%%%mzn-stat: failures=4
%%%mzn-stat: propagations=50356
%%%mzn-stat: nogoods=4
%%%mzn-stat: numAtomicConstraintsPropagated=0
%%%mzn-stat: circuitNumber11176PropagationsThatFoundConflict=0
%%%mzn-stat: circuitNumber11176TotalFixedEdgesAtConflict=0
%%%mzn-stat: circuitNumber11176NumberOfConflicts=0
%%%mzn-stat: circuitNumber11176PropagationsThatPruned=3
%%%mzn-stat: circuitNumber11176PropagationsTotal=141
%%%mzn-stat: AverageConflictSize=2
%%%mzn-stat: NumUnitNogoodsLearned=0
%%%mzn-stat: AverageLearnedNogoodLength=15.75
%%%mzn-stat: AverageBacktrackAmount=0
%%%mzn-stat: AverageLbd=10.25
%%%mzn-stat: 2AutonomousSearchNumBackupCalled=3126
%%%mzn-stat: 2AutonomousSearchNumPredicatesRemoved=0
%%%mzn-stat: 2AutonomousSearchNumCalls=3127
%%%mzn-stat: 2AutonomousSearchNumPredicatesAdded=166
%%%mzn-stat: 2AutonomousSearchAverageSizeOfHeap=0.05308602494403582
%%%mzn-stat: 2AutonomousSearchNumAssignedPredicatesEncountered=166
%%%mzn-stat-end
maxleg = 1078;
succ = array1d(1..150,[2, 5, 39, 7, 3, 4, 12, 6, 19, 16, 35, 1, 9, 47, 11, 26, 22, 17, 8, 14, 10, 20, 28, 15, 13, 25, 21, 24, 32, 23, 30, 18, 42, 36, 34, 37, 33, 31, 41, 43, 84, 63, 38, 40, 66, 27, 62, 29, 72, 46, 48, 53, 50, 55, 44, 52, 71, 51, 45, 74, 100, 49, 69, 79, 67, 60, 96, 61, 77, 76, 70, 68, 80, 64, 56, 81, 58, 104, 57, 54, 75, 59, 86, 91, 65, 73, 105, 90, 92, 95, 106, 114, 78, 85, 98, 87, 93, 99, 103, 88, 116, 94, 118, 89, 112, 97, 102, 83, 101, 107, 133, 119, 115, 117, 82, 111, 121, 134, 125, 110, 126, 108, 139, 129, 131, 109, 147, 123, 138, 142, 135, 120, 124, 144, 141, 128, 150, 148, 143, 122, 130, 137, 113, 149, 146, 127, 136, 140, 132, 145]);
% time elapsed: 3.74 s
----------
%%%mzn-stat: initTime=0.057976138
%%%mzn-stat: objective=1053
%%%mzn-stat: nodes=6473
%%%mzn-stat: restarts=0
%%%mzn-stat: peakDepth=3260
%%%mzn-stat: solveTime=0.02783175
%%%mzn-stat: variables=5361
%%%mzn-stat: propagators=15383
%%%mzn-stat: failures=6
%%%mzn-stat: propagations=81172
%%%mzn-stat: nogoods=6
%%%mzn-stat: numAtomicConstraintsPropagated=0
%%%mzn-stat: circuitNumber11176PropagationsThatFoundConflict=2
%%%mzn-stat: circuitNumber11176TotalFixedEdgesAtConflict=300
%%%mzn-stat: circuitNumber11176NumberOfConflicts=2
%%%mzn-stat: circuitNumber11176PropagationsThatPruned=6
%%%mzn-stat: circuitNumber11176PropagationsTotal=281
%%%mzn-stat: AverageConflictSize=38.833333333333336
%%%mzn-stat: NumUnitNogoodsLearned=0
%%%mzn-stat: AverageLearnedNogoodLength=56.666666666666664
%%%mzn-stat: AverageBacktrackAmount=0
%%%mzn-stat: AverageLbd=51.333333333333336
%%%mzn-stat: 2AutonomousSearchNumBackupCalled=6198
%%%mzn-stat: 2AutonomousSearchNumPredicatesRemoved=0
%%%mzn-stat: 2AutonomousSearchNumCalls=6200
%%%mzn-stat: 2AutonomousSearchNumPredicatesAdded=406
%%%mzn-stat: 2AutonomousSearchAverageSizeOfHeap=0.08774193548387096
%%%mzn-stat: 2AutonomousSearchNumAssignedPredicatesEncountered=544
%%%mzn-stat-end
maxleg = 1053;
succ = array1d(1..150,[2, 5, 39, 7, 3, 4, 12, 6, 19, 16, 35, 1, 9, 47, 11, 26, 22, 17, 8, 14, 10, 20, 28, 15, 13, 25, 21, 24, 32, 23, 30, 18, 42, 36, 34, 37, 33, 31, 41, 43, 84, 63, 38, 40, 66, 27, 62, 29, 72, 46, 48, 53, 50, 55, 44, 52, 71, 51, 45, 74, 100, 49, 69, 79, 67, 60, 96, 61, 77, 76, 70, 68, 80, 64, 56, 81, 58, 104, 57, 54, 75, 59, 86, 91, 65, 73, 105, 90, 92, 95, 106, 114, 78, 85, 98, 87, 93, 99, 103, 88, 116, 94, 118, 89, 112, 97, 102, 83, 101, 107, 133, 119, 115, 117, 82, 111, 123, 134, 121, 110, 113, 108, 139, 129, 120, 109, 147, 141, 138, 131, 135, 137, 124, 144, 150, 125, 122, 148, 126, 128, 149, 145, 130, 143, 146, 127, 136, 140, 132, 142]);
% time elapsed: 3.74 s
----------
%%%mzn-stat: initTime=0.057976138
%%%mzn-stat: objective=1012
%%%mzn-stat: nodes=9701
%%%mzn-stat: restarts=0
%%%mzn-stat: peakDepth=3260
%%%mzn-stat: solveTime=0.037701981
%%%mzn-stat: variables=5361
%%%mzn-stat: propagators=15383
%%%mzn-stat: failures=7
%%%mzn-stat: propagations=110514
%%%mzn-stat: nogoods=7
%%%mzn-stat: numAtomicConstraintsPropagated=0
%%%mzn-stat: circuitNumber11176PropagationsThatFoundConflict=2
%%%mzn-stat: circuitNumber11176TotalFixedEdgesAtConflict=300
%%%mzn-stat: circuitNumber11176NumberOfConflicts=2
%%%mzn-stat: circuitNumber11176PropagationsThatPruned=9
%%%mzn-stat: circuitNumber11176PropagationsTotal=417
%%%mzn-stat: AverageConflictSize=33.57142857142857
%%%mzn-stat: NumUnitNogoodsLearned=0
%%%mzn-stat: AverageLearnedNogoodLength=50
%%%mzn-stat: AverageBacktrackAmount=0
%%%mzn-stat: AverageLbd=44.857142857142854
%%%mzn-stat: 2AutonomousSearchNumBackupCalled=9292
%%%mzn-stat: 2AutonomousSearchNumPredicatesRemoved=0
%%%mzn-stat: 2AutonomousSearchNumCalls=9295
%%%mzn-stat: 2AutonomousSearchNumPredicatesAdded=448
%%%mzn-stat: 2AutonomousSearchAverageSizeOfHeap=0.09983862291554599
%%%mzn-stat: 2AutonomousSearchNumAssignedPredicatesEncountered=928
%%%mzn-stat-end
maxleg = 1012;
succ = array1d(1..150,[2, 5, 39, 7, 3, 4, 12, 22, 19, 16, 35, 1, 9, 47, 11, 26, 23, 17, 8, 6, 10, 20, 14, 15, 13, 25, 21, 24, 32, 33, 30, 18, 42, 36, 34, 37, 43, 31, 41, 52, 84, 63, 38, 40, 66, 27, 28, 29, 72, 46, 48, 53, 50, 55, 44, 58, 71, 51, 45, 74, 100, 49, 69, 79, 67, 60, 96, 61, 77, 76, 70, 68, 80, 64, 56, 81, 59, 104, 57, 54, 89, 73, 75, 91, 65, 62, 86, 90, 92, 95, 106, 114, 78, 85, 98, 87, 93, 99, 103, 88, 116, 94, 118, 124, 112, 97, 102, 83, 101, 105, 133, 119, 115, 107, 82, 111, 113, 134, 121, 110, 126, 108, 139, 129, 117, 109, 147, 123, 138, 131, 120, 137, 128, 144, 141, 125, 150, 135, 143, 122, 130, 145, 148, 149, 146, 127, 136, 140, 132, 142]);
% time elapsed: 3.76 s
----------
%%%mzn-stat: initTime=0.057976138
%%%mzn-stat: objective=1009
%%%mzn-stat: nodes=12895
%%%mzn-stat: restarts=0
%%%mzn-stat: peakDepth=3260
%%%mzn-stat: solveTime=0.048731651
%%%mzn-stat: variables=5361
%%%mzn-stat: propagators=15383
%%%mzn-stat: failures=8
%%%mzn-stat: propagations=140445
%%%mzn-stat: nogoods=8
%%%mzn-stat: numAtomicConstraintsPropagated=0
%%%mzn-stat: circuitNumber11176PropagationsThatFoundConflict=3
%%%mzn-stat: circuitNumber11176TotalFixedEdgesAtConflict=450
%%%mzn-stat: circuitNumber11176NumberOfConflicts=3
%%%mzn-stat: circuitNumber11176PropagationsThatPruned=9
%%%mzn-stat: circuitNumber11176PropagationsTotal=552
%%%mzn-stat: AverageConflictSize=40.75
%%%mzn-stat: NumUnitNogoodsLearned=0
%%%mzn-stat: AverageLearnedNogoodLength=56.125
%%%mzn-stat: AverageBacktrackAmount=0
%%%mzn-stat: AverageLbd=50.375
%%%mzn-stat: 2AutonomousSearchNumBackupCalled=12350
%%%mzn-stat: 2AutonomousSearchNumPredicatesRemoved=0
%%%mzn-stat: 2AutonomousSearchNumCalls=12354
%%%mzn-stat: 2AutonomousSearchNumPredicatesAdded=604
%%%mzn-stat: 2AutonomousSearchAverageSizeOfHeap=0.11324267443742918
%%%mzn-stat: 2AutonomousSearchNumAssignedPredicatesEncountered=1399
%%%mzn-stat-end
maxleg = 1009;
succ = array1d(1..150,[2, 5, 39, 7, 3, 4, 12, 22, 19, 16, 35, 1, 9, 47, 11, 26, 23, 17, 8, 6, 10, 20, 14, 15, 13, 25, 21, 24, 32, 33, 30, 18, 42, 36, 34, 37, 43, 31, 41, 52, 84, 63, 38, 40, 66, 27, 28, 29, 72, 46, 49, 53, 50, 55, 44, 58, 71, 51, 45, 74, 100, 60, 69, 79, 67, 87, 48, 61, 77, 76, 70, 68, 80, 64, 56, 81, 59, 104, 57, 54, 75, 73, 86, 91, 65, 62, 105, 90, 92, 95, 106, 114, 78, 85, 98, 88, 93, 99, 103, 113, 116, 94, 118, 89, 112, 97, 102, 83, 101, 107, 133, 119, 115, 117, 82, 111, 123, 134, 121, 110, 126, 108, 139, 129, 96, 109, 147, 141, 138, 131, 120, 137, 124, 144, 150, 125, 122, 135, 143, 127, 132, 145, 148, 149, 146, 128, 136, 140, 130, 142]);
% time elapsed: 3.79 s
----------
%%%mzn-stat: initTime=0.057976138
%%%mzn-stat: objective=1009
%%%mzn-stat: nodes=352743
%%%mzn-stat: restarts=0
%%%mzn-stat: peakDepth=3260
%%%mzn-stat: solveTime=296.441455306
%%%mzn-stat: variables=5361
%%%mzn-stat: propagators=15383
%%%mzn-stat: failures=332462
%%%mzn-stat: propagations=415901186
%%%mzn-stat: nogoods=332462
%%%mzn-stat: numAtomicConstraintsPropagated=0
%%%mzn-stat: circuitNumber11176PropagationsThatFoundConflict=1149
%%%mzn-stat: circuitNumber11176TotalFixedEdgesAtConflict=161841
%%%mzn-stat: circuitNumber11176NumberOfConflicts=1149
%%%mzn-stat: circuitNumber11176PropagationsThatPruned=30928
%%%mzn-stat: circuitNumber11176PropagationsTotal=322855
%%%mzn-stat: AverageConflictSize=13.348993268403607
%%%mzn-stat: NumUnitNogoodsLearned=0
%%%mzn-stat: AverageLearnedNogoodLength=59.423296497043275
%%%mzn-stat: AverageBacktrackAmount=0
%%%mzn-stat: AverageLbd=37.742349501597175
%%%mzn-stat: 2AutonomousSearchNumBackupCalled=12350
%%%mzn-stat: 2AutonomousSearchNumPredicatesRemoved=0
%%%mzn-stat: 2AutonomousSearchNumCalls=12354
%%%mzn-stat: 2AutonomousSearchNumPredicatesAdded=2776
%%%mzn-stat: 2AutonomousSearchAverageSizeOfHeap=0.11324267443742918
%%%mzn-stat: 2AutonomousSearchNumAssignedPredicatesEncountered=1399
%%%mzn-stat-end
